c p10@v3 --> 45
c p8@v1 --> 40
c p8@v2 --> 41
c p8@v0 --> 39
c p3@v2 --> 38
c p10@v2 --> 44
c p10@v0 --> 42
c p7 --> 35
c p11@v3 --> 34
c p11@v2 --> 33
c p11@v1 --> 32
c p4@v2 --> 30
c p9@v2 --> 12
c p9@v1 --> 11
c p9@v0 --> 10
c p9@v3 --> 13
c p14@v3 --> 4
c p0 --> 9
c p13@v3 --> 8
c p3@v1 --> 37
c p14@v1 --> 2
c p13@v0 --> 5
c p14@v2 --> 3
c p2@v2 --> 27
c p3@v0 --> 36
c p13@v2 --> 7
c p6@v2 --> 24
c p13@v1 --> 6
c p14@v0 --> 1
c p12@v0 --> 14
c p6@v0 --> 22
c p12@v1 --> 15
c p6@v1 --> 23
c p4@v1 --> 29
c p1 --> 18
c p11@v0 --> 31
c p5@v0 --> 19
c p10@v1 --> 43
c p5@v2 --> 21
c p5@v1 --> 20
c p12@v3 --> 17
c p2@v0 --> 25
c p2@v1 --> 26
c @top --> 46
c p12@v2 --> 16
c p4@v0 --> 28
p cnf 46 80
-3 -9 0
-40 -9 0
-9 -8 0
-2 -9 0
-39 -9 0
-4 -9 0
-7 -9 0
-6 -9 0
-17 -9 0
-26 -18 0
-15 -9 0
-25 18 0
-9 -16 0
1 2 3 4 0
-1 -2 0
-1 -3 0
-1 -4 0
-2 -3 0
-2 -4 0
-3 -4 0
5 6 7 8 0
-5 -6 0
-5 -7 0
-5 -8 0
-6 -7 0
-6 -8 0
-7 -8 0
10 11 12 13 0
-10 -11 0
-10 -12 0
-10 -13 0
-11 -12 0
-11 -13 0
-12 -13 0
14 15 16 17 0
-14 -15 0
-14 -16 0
-14 -17 0
-15 -16 0
-15 -17 0
-16 -17 0
19 20 21 0
-19 -20 0
-19 -21 0
-20 -21 0
22 23 24 0
-22 -23 0
-22 -24 0
-23 -24 0
25 26 27 0
-25 -26 0
-25 -27 0
-26 -27 0
28 29 30 0
-28 -29 0
-28 -30 0
-29 -30 0
31 32 33 34 0
-31 -32 0
-31 -33 0
-31 -34 0
-32 -33 0
-32 -34 0
-33 -34 0
36 37 38 0
-36 -37 0
-36 -38 0
-37 -38 0
39 40 41 0
-39 -40 0
-39 -41 0
-40 -41 0
42 43 44 45 0
-42 -43 0
-42 -44 0
-42 -45 0
-43 -44 0
-43 -45 0
-44 -45 0
46 -46 0
